letting n =  10
letting blocks =  [[1, 2], [1, 3], [1, 5], [1, 7], [1, 8], [1, 9], [2, 1], [2, 2], [2, 4], [2, 6], [2, 8], [2, 9], [3, 1], [3, 3], [3, 6], [4, 2], [4, 10], [5, 1], [5, 3], [5, 5], [5, 8], [6, 1], [6, 4], [6, 7], [6, 8], [7, 3], [7, 7], [7, 8], [8, 1], [8, 6], [8, 7], [8, 10], [9, 2], [9, 3], [9, 6], [9, 8], [10, 5], [10, 7]]
